NAME : rnd36_20.tsp
TYPE : TSP
DIMENSION : 20
EDGE_WEIGHT_TYPE : EUC_2D
NODE_COORD_SECTION
1 462 288
2 332 548
3 888 81
4 542 626
5 615 668
6 29 308
7 23 375
8 854 917
9 976 316
10 454 35
11 782 963
12 951 373
13 621 330
14 580 446
15 650 113
16 853 938
17 271 503
18 715 170
19 872 323
20 198 341
